200
1000
209
208
207
205
205
204
203
201
200
200
199
199
198
198
198
196
196
196
196
195
194
193
192
192
192
189
188
187
186
185
185
183
182
182
181
181
181
180
179
178
178
177
175
174
174
173
171
170
170
170
169
168
166
165
165
164
163
163
162
161
161
161
161
157
156
156
154
154
154
151
150
149
148
147
146
146
146
145
144
143
141
141
138
138
137
136
136
135
132
130
130
129
128
128
128
127
126
126
126
126
122
121
118
118
116
116
114
112
112
111
111
111
110
110
110
109
108
108
107
106
105
104
102
101
101
99
94
94
94
93
92
92
90
90
90
90
89
88
87
87
86
84
84
82
82
82
81
80
79
77
74
74
72
71
70
69
69
68
68
67
66
61
60
57
57
56
56
56
55
49
48
48
47
47
46
44
44
39
38
38
38
35
34
33
31
31
30
29
28
26
24
24
21
20
20
17
16
16
15
13
